Solving original (integer) problem with strategy gdp.hull_exact...
--- Job model.gms Start 02/15/26 21:38:37 52.2.0 d8e408be LEX-LEG x86 64bit/Linux
--- Applying:
    /package/gams/52.2/gmsprmun.txt
--- GAMS Parameters defined
    Input /local/scratch/a/sgusev/repos/k_means/data/gams_scip_gdp.hull_exact/no_mode/2026-02-15_21-38-36/original/model.gms
    Output /local/scratch/a/sgusev/repos/k_means/data/gams_scip_gdp.hull_exact/no_mode/2026-02-15_21-38-36/original/output.lst
    ScrDir /local/scratch/a/sgusev/repos/k_means/data/gams_scip_gdp.hull_exact/no_mode/2026-02-15_21-38-36/original/225a/
    SysDir /package/gams/52.2/
    CurDir /local/scratch/a/sgusev/repos/k_means/data/gams_scip_gdp.hull_exact/no_mode/2026-02-15_21-38-36/original/
    LogOption 3
    AppendLog 1
Licensee: David Bernal / SECQUOIA Research Group         G251008+0003Ac-GEN
          Purdue University, Davidson School of Chemical EngineeringDCE4838
          225a/gamslice.dat
          5a82958a-fbca-4a23
          node:66820903 mem:995 cores:48 ipport:60181 v:2                  
          Evaluation license: Not for commercial or production use
          The time-limited license stops working on : Jun 30, 2027
System information: 48 physical cores and 995 Gb physical memory detected
GAMS 52.2.0   Copyright (C) 1987-2025 GAMS Development. All rights reserved
--- Starting compilation
--- model.gms(1406) 2 Mb
--- $echo File /local/scratch/a/sgusev/repos/k_means/data/gams_scip_gdp.hull_exact/no_mode/2026-02-15_21-38-36/original/scip.opt
--- model.gms(2110) 2 Mb
--- Starting execution: elapsed 0:00:00.010
--- model.gms(1416) 3 Mb
--- Generating MINLP model GAMS_MODEL
--- model.gms(1420) 5 Mb
---   421 rows  216 columns  1,017 non-zeroes
---   693 nl-code  132 nl-non-zeroes
---   33 discrete-columns
--- Range statistics (absolute non-zero finite values)
--- RHS       [min, max] : [ 1.000E+00, 1.000E+00] - Zero values observed as well
--- Bound     [min, max] : [ 1.000E+00, 4.400E+01] - Zero values observed as well
--- Matrix    [min, max] : [ 1.000E+00, 4.400E+01] - Zero values observed as well
--- model.gms(1420) 3 Mb
--- Executing SCIP (Solvelink=5): elapsed 0:00:00.014

SCIP             52.2.0 d8e408be Dec 8, 2025           LEG x86 64bit/Linux    
SCIP version 9.2.4 (a94f778ac8)
Copyright (c) 2002-2025 Zuse Institute Berlin (ZIB)

External libraries: 
  CPLEX 22.1.2.0       Linear Programming Solver developed by IBM (www.cplex.com)
  CppAD 20180000.0     Algorithmic Differentiation of C++ algorithms developed by B. Bell (github.com/coin-or/CppAD)
  PaPILO 2.4.4         parallel presolve for integer and linear optimization (github.com/scipopt/papilo) (built with TBB) [GitHash: 7c826d50]
  Nauty 2.8.9          Computing Graph Automorphism Groups by Brendan D. McKay (users.cecs.anu.edu.au/~bdm/nauty)
  sassy 1.1            Symmetry preprocessor by Markus Anders (github.com/markusa4/sassy)
  Ipopt 3.14.19        Interior Point Optimizer developed by A. Waechter et.al. (github.com/coin-or/Ipopt)

reading option file /local/scratch/a/sgusev/repos/k_means/data/gams_scip_gdp.hull_exact/no_mode/2026-02-15_21-38-36/original/scip.opt
non-default parameter settings:
limits/time = 300
limits/gap = 1e-06
limits/absgap = 1e-10
lp/threads = 1
misc/printreason = FALSE
numerics/dualfeastol = 1e-06
parallel/maxnthreads = 1
nlpi/ipopt/linear_solver = "ma27"
nlpi/ipopt/linear_system_scaling = "mc19"

original problem has 215 variables (33 bin, 0 int, 182 cont) and 420 constraints

all 1 solutions given by solution candidate storage are infeasible

presolving:
(round 1, fast)       11 del vars, 0 del conss, 0 add conss, 0 chg bounds, 0 chg sides, 0 chg coeffs, 0 upgd conss, 0 impls, 11 clqs
(round 2, fast)       11 del vars, 0 del conss, 0 add conss, 0 chg bounds, 11 chg sides, 0 chg coeffs, 0 upgd conss, 0 impls, 11 clqs
(round 3, exhaustive) 11 del vars, 0 del conss, 0 add conss, 0 chg bounds, 11 chg sides, 0 chg coeffs, 308 upgd conss, 0 impls, 11 clqs
   (0.0s) probing cycle finished: starting next cycle
   (0.0s) symmetry computation started: requiring (bin +, int +, cont +), (fixed: bin -, int -, cont -)
   (0.0s) no symmetry present (symcode time: 0.00)
presolving (4 rounds: 4 fast, 2 medium, 2 exhaustive):
 11 deleted vars, 0 deleted constraints, 0 added constraints, 0 tightened bounds, 0 added holes, 11 changed sides, 0 changed coefficients
 627 implications, 11 cliques
presolved problem has 204 variables (33 bin, 0 int, 0 impl, 171 cont) and 420 constraints
    297 constraints of type <varbound>
     11 constraints of type <setppc>
     79 constraints of type <linear>
     33 constraints of type <nonlinear>
Presolving Time: 0.01

 time | node  | left  |LP iter|LP it/n|mem/heur|mdpt |vars |cons |rows |cuts |sepa|confs|strbr|  dualbound   | primalbound  |  gap   | compl. 
  0.1s|     1 |     0 |   193 |     - |  5143k |   0 | 402 | 420 | 651 |   0 |  0 |   0 |   0 | 0.000000e+00 |      --      |    Inf | unknown
o 0.1s|     1 |     0 |   249 |     - |feaspump|   0 | 402 | 420 | 651 |   0 |  0 |   0 |   0 | 0.000000e+00 | 5.555949e+00 |    Inf | unknown
  0.1s|     1 |     0 |   327 |     - |  5689k |   0 | 402 | 420 | 702 |  51 |  1 |   0 |   0 | 0.000000e+00 | 5.555949e+00 |    Inf | unknown
  0.1s|     1 |     0 |   327 |     - |  5698k |   0 | 402 | 420 | 691 |  51 |  1 |   0 |   0 | 0.000000e+00 | 5.555949e+00 |    Inf | unknown
  0.1s|     1 |     0 |   394 |     - |  5793k |   0 | 402 | 420 | 745 | 105 |  2 |   0 |   0 | 0.000000e+00 | 5.555949e+00 |    Inf | unknown
  0.1s|     1 |     0 |   455 |     - |  5909k |   0 | 402 | 420 | 784 | 144 |  3 |   0 |   0 | 0.000000e+00 | 5.555949e+00 |    Inf | unknown
  0.1s|     1 |     0 |   517 |     - |  6059k |   0 | 402 | 420 | 825 | 185 |  4 |   0 |   0 | 0.000000e+00 | 5.555949e+00 |    Inf | unknown
  0.1s|     1 |     0 |   571 |     - |  6154k |   0 | 402 | 420 | 857 | 217 |  5 |   0 |   0 | 0.000000e+00 | 5.555949e+00 |    Inf | unknown
  0.1s|     1 |     0 |   660 |     - |  6417k |   0 | 402 | 420 | 891 | 251 |  6 |   0 |   0 | 0.000000e+00 | 5.555949e+00 |    Inf | unknown
  0.1s|     1 |     0 |   730 |     - |  6604k |   0 | 402 | 420 | 934 | 294 |  7 |   0 |   0 | 0.000000e+00 | 5.555949e+00 |    Inf | unknown
  0.2s|     1 |     0 |   799 |     - |  7256k |   0 | 402 | 420 | 980 | 340 |  8 |   0 |   0 | 0.000000e+00 | 5.555949e+00 |    Inf | unknown
  0.2s|     1 |     0 |   866 |     - |  7397k |   0 | 402 | 420 |1012 | 372 |  9 |   0 |   0 | 0.000000e+00 | 5.555949e+00 |    Inf | unknown
  0.2s|     1 |     0 |   912 |     - |  7854k |   0 | 402 | 420 |1036 | 396 | 10 |   0 |   0 | 0.000000e+00 | 5.555949e+00 |    Inf | unknown
  0.2s|     1 |     0 |   954 |     - |  7969k |   0 | 402 | 420 | 838 | 420 | 11 |   0 |   0 | 0.000000e+00 | 5.555949e+00 |    Inf | unknown
r 0.4s|     1 |     0 |  3006 |     - |intshift|   0 | 402 | 409 | 838 | 420 | 11 |   0 |   0 | 0.000000e+00 | 4.178991e+00 |    Inf | unknown
 time | node  | left  |LP iter|LP it/n|mem/heur|mdpt |vars |cons |rows |cuts |sepa|confs|strbr|  dualbound   | primalbound  |  gap   | compl. 
  0.7s|     1 |     0 |  3006 |     - |  8845k |   0 | 402 | 409 | 838 | 420 | 11 |   0 |   0 | 0.000000e+00 | 4.178991e+00 |    Inf | unknown
  0.7s|     1 |     0 |  3044 |     - |  8926k |   0 | 402 | 409 | 865 | 447 | 12 |   0 |   0 | 0.000000e+00 | 4.178991e+00 |    Inf | unknown
  0.7s|     1 |     0 |  3054 |     - |  8936k |   0 | 402 | 409 | 874 | 456 | 13 |   0 |   0 | 0.000000e+00 | 4.178991e+00 |    Inf | unknown
  0.7s|     1 |     2 |  3054 |     - |  8953k |   0 | 402 | 409 | 874 | 456 | 13 |   0 |  23 | 0.000000e+00 | 4.178991e+00 |    Inf | unknown
d 0.9s|    11 |    12 |  4111 | 316.9 |pscostdi|   9 | 402 | 409 | 735 | 903 |  2 |   0 |  75 | 0.000000e+00 | 2.445010e+00 |    Inf | unknown
r 1.4s|    76 |    71 | 12875 | 159.1 |intshift|  12 | 402 | 409 | 717 |4821 |  3 |   3 | 147 | 0.000000e+00 | 2.410425e+00 |    Inf |   1.79%
  1.6s|   100 |    95 | 16587 | 158.0 |    14M |  12 | 402 | 409 | 742 |6192 |  2 |   3 | 150 | 0.000000e+00 | 2.410425e+00 |    Inf |   2.52%
d 1.8s|   118 |    96 | 19107 | 155.3 |nlpdivin|  12 | 402 | 409 | 730 |   0 |  6 |   4 | 157 | 0.000000e+00 | 1.390699e+00 |    Inf |   4.85%
d 1.9s|   125 |   101 | 19976 | 153.5 |guideddi|  12 | 402 | 409 | 705 |7595 |  2 |   4 | 157 | 0.000000e+00 | 1.390699e+00 |    Inf |   9.43%
  2.3s|   200 |   138 | 27837 | 135.2 |    17M |  14 | 402 | 409 | 787 |  11k|  5 |   8 | 160 | 0.000000e+00 | 1.390699e+00 |    Inf |  16.16%
L 2.5s|   225 |   112 | 30200 | 130.6 |    gins|  14 | 402 | 409 | 762 |  12k|  0 |   9 | 160 | 1.346596e-01 | 1.221664e+00 | 807.22%|  28.40%
  2.9s|   300 |   119 | 36244 | 118.1 |    18M |  14 | 402 | 409 | 792 |  14k|  0 |  14 | 160 | 2.770181e-01 | 1.221664e+00 | 341.01%|  41.29%
* 3.0s|   327 |    71 | 38248 | 114.4 |    LP  |  15 | 402 | 409 | 856 |  15k|  6 |  18 | 162 | 2.817715e-01 | 8.837677e-01 | 213.65%|  53.86%
  3.2s|   400 |    34 | 41122 | 100.7 |    20M |  15 | 402 | 409 | 792 |  16k|  7 |  26 | 168 | 4.262926e-01 | 8.837677e-01 | 107.31%|  82.55%

SCIP Status        : problem is solved [optimal solution found]
Solving Time (sec) : 3.36
Solving Nodes      : 454
Primal Bound       : +8.83767660437824e-01 (10 solutions)
Dual Bound         : +8.83767660437824e-01
Gap                : 0.00 %


--- Reading solution for model GAMS_MODEL
***
*** Solver did not provide marginals for model GAMS_MODEL
***
--- Executing after solve: elapsed 0:00:03.429
--- model.gms(1423) 3 Mb
--- model.gms(2110) 5 Mb
--- Putfile results /local/scratch/a/sgusev/repos/k_means/data/gams_scip_gdp.hull_exact/no_mode/2026-02-15_21-38-36/original/results.dat
--- Putfile statresults /local/scratch/a/sgusev/repos/k_means/data/gams_scip_gdp.hull_exact/no_mode/2026-02-15_21-38-36/original/resultsstat.dat
*** Status: Normal completion
--- Job model.gms Stop 02/15/26 21:38:40 elapsed 0:00:03.431
Original problem solved. Time taken: 3.991882085800171 seconds
Original objective value: 0.883767660437824
